NAME : EIL101A.695.tour
COMMENT : Cost = 0_695
COMMENT : Found by LKH [Keld Helsgaun] Sun Sep 17 16:52:42 2017
TYPE : TOUR
DIMENSION : 101
TOUR_SECTION
1
69
52
7
82
46
47
36
49
64
11
63
90
32
20
66
71
65
35
9
51
81
33
50
76
28
27
101
53
40
21
72
75
56
23
67
39
25
55
4
54
68
77
3
79
78
34
29
24
80
12
26
58
13
94
96
99
93
85
91
100
98
37
42
43
15
41
22
74
73
2
57
87
97
92
59
95
6
89
18
83
60
84
5
61
16
44
14
38
86
17
45
8
48
19
62
88
31
10
30
70
-1
EOF
